(Cu)4  (Fm-3m) ~ Copper (ICSD #655129)_1
   2.00000000000000
     0.8660254037844387 0.49999999999999994   0.0000000000000000
     0.0000000000000000    1.0000000000000000    0.0000000000000000
     0.0000000000000000    0.0000000000000000    1.0000000000000000
   Cu
     1
Direct
  0.0000000000000000  0.0000000000000000  0.0000000000000000

  0.00000000E+00  0.00000000E+00  0.00000000E+00
