(Cu)4  (Fm-3m) ~ Copper (ICSD #655129)_1
   1.00000000000000
     0.984807753012208     0.17364817766693033   0.0000000000000000
     0.0000000000000000    1.0000000000000000    0.0000000000000000
     0.0000000000000000    0.0000000000000000    1.0000000000000000
   Cu
     1
Direct
  0.0000000000000000  0.0000000000000000  0.0000000000000000

  0.00000000E+00  0.00000000E+00  0.00000000E+00
