(Ti)2  (P6_3/mmc) ~ Titanium (ICSD #6532
   1.00000000000000     
     2.9446774266097324    0.0000000000000000    0.0000000000000000
    -1.4723387133048662    2.5501654586022018    0.0000000000000000
     0.0000000000000000   -0.0000000000000000    4.5912428545374251
   Ti
     2
Direct
  0.3333333333333333  0.6666666666666666  0.2500000000000000
  0.6666666666666666  0.3333333333333333  0.7500000000000000
 
  0.00000000E+00  0.00000000E+00  0.00000000E+00
  0.00000000E+00  0.00000000E+00  0.00000000E+00
