(Mo)2  (Im-3m) ~ Molybdenum (ICSD #53799
   1.00000000000000     
    -1.5653181164691052   -1.5653181164691052    1.5653181164691052
    -1.5653181164691052    1.5653181164691052   -1.5653181164691052
     1.5653181164691052   -1.5653181164691052   -1.5653181164691052
   Mo
     1
Direct
  0.0000000000000000  0.0000000000000000  0.0000000000000000
 
  0.00000000E+00  0.00000000E+00  0.00000000E+00
